<number of tasks>
250

<cycle time>
1000

<order strength>
0.596


<task times>
1 161
2 45
3 89
4 676
5 408
6 64
7 94
8 320
9 75
10 539
11 583
12 158
13 49
14 185
15 544
16 171
17 261
18 114
19 70
20 157
21 256
22 374
23 181
24 86
25 159
26 300
27 332
28 57
29 47
30 259
31 61
32 225
33 258
34 191
35 140
36 285
37 56
38 126
39 70
40 98
41 202
42 101
43 112
44 27
45 182
46 138
47 304
48 80
49 70
50 465
51 144
52 444
53 118
54 87
55 45
56 535
57 154
58 274
59 207
60 162
61 391
62 493
63 327
64 253
65 49
66 123
67 438
68 61
69 37
70 133
71 29
72 528
73 172
74 168
75 191
76 64
77 589
78 93
79 77
80 196
81 205
82 44
83 78
84 167
85 414
86 87
87 215
88 22
89 318
90 234
91 254
92 165
93 97
94 108
95 441
96 119
97 257
98 220
99 181
100 306
101 157
102 157
103 172
104 203
105 209
106 492
107 57
108 147
109 132
110 481
111 49
112 220
113 349
114 111
115 189
116 69
117 252
118 47
119 183
120 139
121 94
122 146
123 52
124 289
125 557
126 183
127 393
128 58
129 150
130 445
131 443
132 64
133 235
134 269
135 507
136 271
137 165
138 272
139 98
140 147
141 134
142 448
143 78
144 176
145 205
146 91
147 188
148 125
149 267
150 58
151 245
152 87
153 346
154 137
155 325
156 71
157 485
158 150
159 165
160 173
161 313
162 433
163 122
164 76
165 249
166 483
167 426
168 41
169 364
170 56
171 313
172 202
173 204
174 263
175 222
176 105
177 194
178 379
179 147
180 221
181 58
182 138
183 157
184 284
185 154
186 179
187 387
188 329
189 155
190 145
191 159
192 506
193 482
194 103
195 293
196 54
197 518
198 467
199 55
200 437
201 24
202 340
203 326
204 165
205 539
206 253
207 509
208 92
209 353
210 333
211 59
212 182
213 264
214 268
215 599
216 237
217 133
218 81
219 267
220 140
221 114
222 207
223 165
224 217
225 432
226 181
227 548
228 543
229 481
230 299
231 175
232 185
233 132
234 89
235 34
236 60
237 547
238 276
239 294
240 189
241 182
242 48
243 304
244 409
245 300
246 36
247 154
248 28
249 61
250 80

<precedence relations>
1,213
2,105
3,170
4,135
5,135
6,7
6,8
6,9
6,10
6,11
6,12
6,13
6,14
6,15
6,16
7,105
8,105
9,151
10,227
11,52
12,52
13,46
14,46
15,135
16,17
16,18
16,19
16,20
16,21
16,22
16,23
16,24
17,84
18,170
19,170
20,106
21,106
22,188
23,52
24,25
24,26
24,27
24,28
24,29
24,30
24,31
24,32
24,33
24,34
25,84
26,84
27,105
28,105
29,227
30,106
31,52
32,46
33,244
34,35
34,36
34,37
34,38
34,39
35,105
36,52
37,46
38,40
38,41
38,42
38,43
38,44
38,45
39,47
39,87
39,109
39,125
40,213
41,105
42,170
43,170
44,191
45,52
46,48
46,53
46,54
46,55
46,56
46,57
46,58
46,59
47,49
47,50
47,51
47,79
47,134
48,213
49,106
50,106
51,188
52,64
52,65
52,66
52,67
52,68
52,69
52,70
52,71
52,72
52,73
52,74
52,75
52,76
52,77
53,84
53,89
54,88
54,128
55,128
55,136
56,62
56,63
56,125
56,129
56,130
57,60
57,61
57,78
58,185
58,188
59,60
59,81
59,90
59,107
60,105
61,105
62,106
63,188
64,79
64,83
64,90
65,79
65,89
65,90
65,91
65,125
66,79
66,80
66,81
66,82
67,79
67,80
67,86
67,108
67,109
68,81
69,80
70,90
70,129
71,79
71,80
72,79
72,131
72,136
72,148
73,79
73,80
73,82
74,81
74,125
75,91
76,89
77,91
78,106
78,107
78,129
79,213
80,84
81,83
81,85
81,87
81,89
81,91
82,86
82,88
82,90
82,91
83,213
84,92
84,93
84,94
84,95
84,96
84,97
84,98
84,99
84,100
84,101
84,102
84,103
84,104
84,107
85,105
86,105
87,105
88,105
89,106
90,106
91,92
91,105
91,106
91,108
91,109
92,213
93,190
93,240
94,128
94,134
95,152
96,125
96,129
97,125
97,126
98,137
98,149
98,154
98,155
99,125
99,139
99,148
100,188
101,210
102,126
103,171
104,125
104,127
105,110
105,111
105,112
105,113
105,114
106,115
106,116
106,117
106,118
106,119
106,120
106,121
106,122
106,123
106,124
107,125
107,130
107,148
108,190
108,197
108,199
109,129
109,147
109,169
110,127
110,130
111,151
111,155
111,169
112,126
112,129
113,131
113,149
114,200
115,154
116,151
117,133
117,151
117,154
118,126
118,145
119,200
120,131
121,126
121,127
121,152
122,128
123,131
123,136
123,138
123,139
123,148
124,126
124,169
125,138
125,146
125,147
126,151
127,188
128,135
129,135
130,131
130,132
130,133
130,134
130,136
131,151
132,170
133,170
134,191
135,138
135,139
135,140
135,141
135,142
135,143
135,144
136,137
136,145
136,146
136,147
137,151
138,227
139,244
140,207
142,148
142,151
142,152
143,186
144,171
144,213
145,188
146,150
147,149
148,213
149,151
150,152
150,153
150,154
150,155
151,156
151,157
151,158
151,159
151,160
151,161
151,162
151,163
151,164
151,165
151,166
151,167
151,168
152,191
153,191
154,169
156,170
157,170
158,172
158,191
158,198
159,170
161,208
161,239
162,171
163,171
163,228
165,171
165,208
165,212
165,228
166,187
167,208
167,244
168,198
168,210
169,170
170,173
170,174
170,175
170,176
170,177
170,178
170,179
170,180
170,181
171,227
172,184
173,185
173,186
173,197
174,184
174,208
175,190
177,182
177,187
178,198
179,188
179,189
180,183
181,211
182,191
183,188
184,188
185,244
186,187
186,189
186,190
187,191
188,192
188,193
188,194
188,195
188,196
188,197
188,199
188,200
189,198
191,201
191,202
191,203
191,204
191,205
191,206
192,243
193,238
194,227
195,237
197,210
198,208
198,240
199,207
200,209
200,211
202,209
203,210
205,210
205,211
206,244
206,245
207,212
209,213
210,215
211,214
212,214
213,216
213,217
213,218
213,219
213,220
213,221
213,222
213,223
213,224
213,225
213,226
214,227
215,227
215,228
218,237
223,239
223,240
224,239
227,229
227,230
227,231
227,232
227,233
227,234
227,235
227,236
230,238
231,240
233,238
233,245
236,239
237,239
238,244
239,241
240,242
240,243
241,244
242,245
244,246
244,247
244,248
244,249
245,250

<end>
